c CNF encoding of the claim that there is a graph of 10 vertices
c with no independent set of size 3 and no clique of size 4
c Generated with `cnfgen` (C) Massimo Lauria <lauria@kth.se>
c https://github.com/MassimoLauria/cnfgen.git
p cnf 45 330
1 2 3 0
1 4 5 0
1 6 7 0
1 8 9 0
1 10 11 0
1 12 13 0
1 14 15 0
1 16 17 0
2 4 18 0
2 6 19 0
2 8 20 0
2 10 21 0
2 12 22 0
2 14 23 0
2 16 24 0
4 6 25 0
4 8 26 0
4 10 27 0
4 12 28 0
4 14 29 0
4 16 30 0
6 8 31 0
6 10 32 0
6 12 33 0
6 14 34 0
6 16 35 0
8 10 36 0
8 12 37 0
8 14 38 0
8 16 39 0
10 12 40 0
10 14 41 0
10 16 42 0
12 14 43 0
12 16 44 0
14 16 45 0
3 5 18 0
3 7 19 0
3 9 20 0
3 11 21 0
3 13 22 0
3 15 23 0
3 17 24 0
5 7 25 0
5 9 26 0
5 11 27 0
5 13 28 0
5 15 29 0
5 17 30 0
7 9 31 0
7 11 32 0
7 13 33 0
7 15 34 0
7 17 35 0
9 11 36 0
9 13 37 0
9 15 38 0
9 17 39 0
11 13 40 0
11 15 41 0
11 17 42 0
13 15 43 0
13 17 44 0
15 17 45 0
18 19 25 0
18 20 26 0
18 21 27 0
18 22 28 0
18 23 29 0
18 24 30 0
19 20 31 0
19 21 32 0
19 22 33 0
19 23 34 0
19 24 35 0
20 21 36 0
20 22 37 0
20 23 38 0
20 24 39 0
21 22 40 0
21 23 41 0
21 24 42 0
22 23 43 0
22 24 44 0
23 24 45 0
25 26 31 0
25 27 32 0
25 28 33 0
25 29 34 0
25 30 35 0
26 27 36 0
26 28 37 0
26 29 38 0
26 30 39 0
27 28 40 0
27 29 41 0
27 30 42 0
28 29 43 0
28 30 44 0
29 30 45 0
31 32 36 0
31 33 37 0
31 34 38 0
31 35 39 0
32 33 40 0
32 34 41 0
32 35 42 0
33 34 43 0
33 35 44 0
34 35 45 0
36 37 40 0
36 38 41 0
36 39 42 0
37 38 43 0
37 39 44 0
38 39 45 0
40 41 43 0
40 42 44 0
41 42 45 0
43 44 45 0
-1 -2 -4 -3 -5 -18 0
-1 -2 -6 -3 -7 -19 0
-1 -2 -8 -3 -9 -20 0
-1 -2 -10 -3 -11 -21 0
-1 -2 -12 -3 -13 -22 0
-1 -2 -14 -3 -15 -23 0
-1 -2 -16 -3 -17 -24 0
-1 -4 -6 -5 -7 -25 0
-1 -4 -8 -5 -9 -26 0
-1 -4 -10 -5 -11 -27 0
-1 -4 -12 -5 -13 -28 0
-1 -4 -14 -5 -15 -29 0
-1 -4 -16 -5 -17 -30 0
-1 -6 -8 -7 -9 -31 0
-1 -6 -10 -7 -11 -32 0
-1 -6 -12 -7 -13 -33 0
-1 -6 -14 -7 -15 -34 0
-1 -6 -16 -7 -17 -35 0
-1 -8 -10 -9 -11 -36 0
-1 -8 -12 -9 -13 -37 0
-1 -8 -14 -9 -15 -38 0
-1 -8 -16 -9 -17 -39 0
-1 -10 -12 -11 -13 -40 0
-1 -10 -14 -11 -15 -41 0
-1 -10 -16 -11 -17 -42 0
-1 -12 -14 -13 -15 -43 0
-1 -12 -16 -13 -17 -44 0
-1 -14 -16 -15 -17 -45 0
-2 -4 -6 -18 -19 -25 0
-2 -4 -8 -18 -20 -26 0
-2 -4 -10 -18 -21 -27 0
-2 -4 -12 -18 -22 -28 0
-2 -4 -14 -18 -23 -29 0
-2 -4 -16 -18 -24 -30 0
-2 -6 -8 -19 -20 -31 0
-2 -6 -10 -19 -21 -32 0
-2 -6 -12 -19 -22 -33 0
-2 -6 -14 -19 -23 -34 0
-2 -6 -16 -19 -24 -35 0
-2 -8 -10 -20 -21 -36 0
-2 -8 -12 -20 -22 -37 0
-2 -8 -14 -20 -23 -38 0
-2 -8 -16 -20 -24 -39 0
-2 -10 -12 -21 -22 -40 0
-2 -10 -14 -21 -23 -41 0
-2 -10 -16 -21 -24 -42 0
-2 -12 -14 -22 -23 -43 0
-2 -12 -16 -22 -24 -44 0
-2 -14 -16 -23 -24 -45 0
-4 -6 -8 -25 -26 -31 0
-4 -6 -10 -25 -27 -32 0
-4 -6 -12 -25 -28 -33 0
-4 -6 -14 -25 -29 -34 0
-4 -6 -16 -25 -30 -35 0
-4 -8 -10 -26 -27 -36 0
-4 -8 -12 -26 -28 -37 0
-4 -8 -14 -26 -29 -38 0
-4 -8 -16 -26 -30 -39 0
-4 -10 -12 -27 -28 -40 0
-4 -10 -14 -27 -29 -41 0
-4 -10 -16 -27 -30 -42 0
-4 -12 -14 -28 -29 -43 0
-4 -12 -16 -28 -30 -44 0
-4 -14 -16 -29 -30 -45 0
-6 -8 -10 -31 -32 -36 0
-6 -8 -12 -31 -33 -37 0
-6 -8 -14 -31 -34 -38 0
-6 -8 -16 -31 -35 -39 0
-6 -10 -12 -32 -33 -40 0
-6 -10 -14 -32 -34 -41 0
-6 -10 -16 -32 -35 -42 0
-6 -12 -14 -33 -34 -43 0
-6 -12 -16 -33 -35 -44 0
-6 -14 -16 -34 -35 -45 0
-8 -10 -12 -36 -37 -40 0
-8 -10 -14 -36 -38 -41 0
-8 -10 -16 -36 -39 -42 0
-8 -12 -14 -37 -38 -43 0
-8 -12 -16 -37 -39 -44 0
-8 -14 -16 -38 -39 -45 0
-10 -12 -14 -40 -41 -43 0
-10 -12 -16 -40 -42 -44 0
-10 -14 -16 -41 -42 -45 0
-12 -14 -16 -43 -44 -45 0
-3 -5 -7 -18 -19 -25 0
-3 -5 -9 -18 -20 -26 0
-3 -5 -11 -18 -21 -27 0
-3 -5 -13 -18 -22 -28 0
-3 -5 -15 -18 -23 -29 0
-3 -5 -17 -18 -24 -30 0
-3 -7 -9 -19 -20 -31 0
-3 -7 -11 -19 -21 -32 0
-3 -7 -13 -19 -22 -33 0
-3 -7 -15 -19 -23 -34 0
-3 -7 -17 -19 -24 -35 0
-3 -9 -11 -20 -21 -36 0
-3 -9 -13 -20 -22 -37 0
-3 -9 -15 -20 -23 -38 0
-3 -9 -17 -20 -24 -39 0
-3 -11 -13 -21 -22 -40 0
-3 -11 -15 -21 -23 -41 0
-3 -11 -17 -21 -24 -42 0
-3 -13 -15 -22 -23 -43 0
-3 -13 -17 -22 -24 -44 0
-3 -15 -17 -23 -24 -45 0
-5 -7 -9 -25 -26 -31 0
-5 -7 -11 -25 -27 -32 0
-5 -7 -13 -25 -28 -33 0
-5 -7 -15 -25 -29 -34 0
-5 -7 -17 -25 -30 -35 0
-5 -9 -11 -26 -27 -36 0
-5 -9 -13 -26 -28 -37 0
-5 -9 -15 -26 -29 -38 0
-5 -9 -17 -26 -30 -39 0
-5 -11 -13 -27 -28 -40 0
-5 -11 -15 -27 -29 -41 0
-5 -11 -17 -27 -30 -42 0
-5 -13 -15 -28 -29 -43 0
-5 -13 -17 -28 -30 -44 0
-5 -15 -17 -29 -30 -45 0
-7 -9 -11 -31 -32 -36 0
-7 -9 -13 -31 -33 -37 0
-7 -9 -15 -31 -34 -38 0
-7 -9 -17 -31 -35 -39 0
-7 -11 -13 -32 -33 -40 0
-7 -11 -15 -32 -34 -41 0
-7 -11 -17 -32 -35 -42 0
-7 -13 -15 -33 -34 -43 0
-7 -13 -17 -33 -35 -44 0
-7 -15 -17 -34 -35 -45 0
-9 -11 -13 -36 -37 -40 0
-9 -11 -15 -36 -38 -41 0
-9 -11 -17 -36 -39 -42 0
-9 -13 -15 -37 -38 -43 0
-9 -13 -17 -37 -39 -44 0
-9 -15 -17 -38 -39 -45 0
-11 -13 -15 -40 -41 -43 0
-11 -13 -17 -40 -42 -44 0
-11 -15 -17 -41 -42 -45 0
-13 -15 -17 -43 -44 -45 0
-18 -19 -20 -25 -26 -31 0
-18 -19 -21 -25 -27 -32 0
-18 -19 -22 -25 -28 -33 0
-18 -19 -23 -25 -29 -34 0
-18 -19 -24 -25 -30 -35 0
-18 -20 -21 -26 -27 -36 0
-18 -20 -22 -26 -28 -37 0
-18 -20 -23 -26 -29 -38 0
-18 -20 -24 -26 -30 -39 0
-18 -21 -22 -27 -28 -40 0
-18 -21 -23 -27 -29 -41 0
-18 -21 -24 -27 -30 -42 0
-18 -22 -23 -28 -29 -43 0
-18 -22 -24 -28 -30 -44 0
-18 -23 -24 -29 -30 -45 0
-19 -20 -21 -31 -32 -36 0
-19 -20 -22 -31 -33 -37 0
-19 -20 -23 -31 -34 -38 0
-19 -20 -24 -31 -35 -39 0
-19 -21 -22 -32 -33 -40 0
-19 -21 -23 -32 -34 -41 0
-19 -21 -24 -32 -35 -42 0
-19 -22 -23 -33 -34 -43 0
-19 -22 -24 -33 -35 -44 0
-19 -23 -24 -34 -35 -45 0
-20 -21 -22 -36 -37 -40 0
-20 -21 -23 -36 -38 -41 0
-20 -21 -24 -36 -39 -42 0
-20 -22 -23 -37 -38 -43 0
-20 -22 -24 -37 -39 -44 0
-20 -23 -24 -38 -39 -45 0
-21 -22 -23 -40 -41 -43 0
-21 -22 -24 -40 -42 -44 0
-21 -23 -24 -41 -42 -45 0
-22 -23 -24 -43 -44 -45 0
-25 -26 -27 -31 -32 -36 0
-25 -26 -28 -31 -33 -37 0
-25 -26 -29 -31 -34 -38 0
-25 -26 -30 -31 -35 -39 0
-25 -27 -28 -32 -33 -40 0
-25 -27 -29 -32 -34 -41 0
-25 -27 -30 -32 -35 -42 0
-25 -28 -29 -33 -34 -43 0
-25 -28 -30 -33 -35 -44 0
-25 -29 -30 -34 -35 -45 0
-26 -27 -28 -36 -37 -40 0
-26 -27 -29 -36 -38 -41 0
-26 -27 -30 -36 -39 -42 0
-26 -28 -29 -37 -38 -43 0
-26 -28 -30 -37 -39 -44 0
-26 -29 -30 -38 -39 -45 0
-27 -28 -29 -40 -41 -43 0
-27 -28 -30 -40 -42 -44 0
-27 -29 -30 -41 -42 -45 0
-28 -29 -30 -43 -44 -45 0
-31 -32 -33 -36 -37 -40 0
-31 -32 -34 -36 -38 -41 0
-31 -32 -35 -36 -39 -42 0
-31 -33 -34 -37 -38 -43 0
-31 -33 -35 -37 -39 -44 0
-31 -34 -35 -38 -39 -45 0
-32 -33 -34 -40 -41 -43 0
-32 -33 -35 -40 -42 -44 0
-32 -34 -35 -41 -42 -45 0
-33 -34 -35 -43 -44 -45 0
-36 -37 -38 -40 -41 -43 0
-36 -37 -39 -40 -42 -44 0
-36 -38 -39 -41 -42 -45 0
-37 -38 -39 -43 -44 -45 0
-40 -41 -42 -43 -44 -45 0
